1000
1000
700
700
700
700
700
700
699
699
698
698
698
698
697
697
696
696
695
695
695
695
695
694
694
694
693
692
690
690
689
689
688
688
687
687
686
686
685
684
683
682
680
680
680
678
677
677
676
675
675
674
673
673
673
672
670
670
668
668
667
667
667
665
664
664
663
662
662
660
660
659
659
658
658
657
656
656
655
653
653
652
652
651
649
648
648
647
645
645
643
643
643
642
641
641
640
639
638
637
637
637
636
635
635
634
634
634
633
633
632
631
630
630
629
629
628
627
627
627
627
627
627
624
622
621
621
620
620
618
617
616
616
616
616
616
615
615
614
614
614
612
612
611
609
609
609
606
606
605
605
605
605
605
604
604
604
603
603
603
603
602
602
601
600
600
600
599
598
598
598
598
597
597
596
596
596
596
596
595
594
594
594
593
593
593
592
591
591
591
590
590
590
589
589
588
588
587
586
586
586
584
584
584
583
582
582
581
581
580
580
580
578
578
577
576
576
575
575
574
574
574
574
573
573
572
571
571
570
570
570
568
567
567
565
565
564
563
563
562
560
558
558
557
556
556
556
556
554
553
552
552
550
549
549
548
548
547
545
545
544
544
544
544
543
543
541
541
540
539
539
538
538
537
535
535
533
533
533
531
530
530
529
529
528
526
526
526
526
526
524
523
522
522
522
521
521
519
517
516
515
514
514
513
513
513
512
512
512
511
511
510
510
510
510
510
510
510
509
509
508
508
505
505
504
504
503
503
501
501
501
501
501
500
500
500
499
498
498
498
497
497
497
496
495
495
494
493
493
493
492
491
491
490
490
489
488
487
487
487
486
486
486
485
483
483
481
480
479
479
478
478
477
476
476
474
473
472
472
472
471
470
468
466
466
465
465
464
462
462
459
459
459
458
457
457
457
457
456
456
455
454
454
454
454
453
452
450
449
449
448
448
447
447
447
447
446
446
444
443
443
442
440
440
440
439
437
436
436
436
435
434
434
433
432
432
431
428
427
427
427
426
424
424
424
423
423
422
422
421
420
420
418
416
416
416
415
414
412
412
410
410
409
408
407
407
407
407
406
406
406
406
406
405
405
403
403
403
403
401
401
400
399
398
398
398
398
396
396
396
395
395
394
393
393
393
392
392
391
391
389
389
389
389
388
386
386
386
385
385
385
384
384
384
383
382
382
382
381
380
379
378
378
378
377
377
377
377
376
376
375
375
375
374
374
373
373
372
372
371
371
371
368
368
367
367
366
365
365
364
364
364
364
363
362
362
361
361
360
360
359
358
356
356
353
353
353
352
352
350
350
349
349
349
349
348
347
347
347
347
346
346
346
346
345
345
344
342
341
341
340
340
339
339
339
339
338
338
337
337
336
336
336
336
335
335
334
334
333
332
331
331
330
330
329
328
328
327
326
325
323
323
323
323
322
322
321
320
320
320
319
319
319
319
318
317
317
317
316
315
313
313
313
311
310
309
307
307
306
305
304
303
302
302
302
302
301
298
298
297
295
293
292
292
292
291
290
290
289
289
289
289
289
289
288
287
286
286
284
284
284
284
283
283
282
281
281
281
280
280
279
279
278
278
277
277
276
276
276
276
275
275
275
274
274
272
271
271
270
269
268
268
267
267
266
266
265
265
264
264
263
261
260
260
260
258
258
258
257
256
256
254
254
253
253
252
251
249
249
249
248
248
248
247
247
247
247
246
246
244
244
243
242
242
242
242
242
242
241
240
240
239
238
237
236
236
236
236
235
234
234
234
232
232
232
232
232
232
230
228
228
227
226
226
226
226
226
225
225
225
225
225
224
223
223
223
223
221
220
218
218
218
216
216
215
215
215
214
214
214
214
213
213
212
212
212
212
211
211
211
210
209
209
209
207
206
205
204
204
204
202
202
202
200
199
198
198
198
197
197
197
192
191
191
190
189
188
188
187
187
187
186
186
185
184
183
182
181
181
180
180
179
179
179
178
177
177
177
177
176
174
173
173
173
172
172
172
172
172
171
171
170
170
170
168
167
167
166
166
166
166
164
164
163
163
163
163
162
162
161
160
159
159
159
159
159
157
156
156
156
155
155
155
155
153
153
153
152
152
151
150
150
149
149
149
148
147
146
142
141
141
141
140
139
137
137
136
135
135
135
135
134
134
133
133
133
133
132
132
131
131
131
128
126
126
126
125
125
125
124
124
124
124
124
122
122
121
121
121
121
121
119
119
119
118
118
116
116
116
115
115
115
113
113
113
112
111
110
108
108
107
106
106
105
105
105
104
104
103
103
102
101
